c description: Random 3-CNF over 15 variables and 45 clauses
p cnf 15 45
-4 8 -13 0
-4 11 -12 0
-1 -4 -10 0
1 -3 -10 0
-2 12 14 0
2 7 15 0
2 7 13 0
-8 13 15 0
-6 7 14 0
-8 -9 13 0
1 4 -10 0
-1 3 15 0
12 13 -14 0
-3 -8 -12 0
3 8 11 0
5 10 -13 0
-1 -2 5 0
2 -3 13 0
-1 4 -7 0
-8 -12 -13 0
-8 10 14 0
-2 3 14 0
-2 -11 13 0
5 -12 -15 0
-2 -6 -15 0
7 10 -11 0
4 -12 13 0
10 11 -14 0
2 14 -15 0
-2 6 -11 0
8 10 15 0
-4 12 -13 0
-10 11 -14 0
-10 -11 -12 0
7 12 -14 0
4 9 -15 0
-2 10 11 0
3 -6 15 0
-8 14 -15 0
-2 4 11 0
5 7 11 0
9 13 -14 0
6 -7 10 0
1 3 13 0
6 -8 9 0